c CNF formula generated by generate_input.py
c Number of variables: 25
c Number of clauses: 25
c Clause length: random between 1 and 4
p cnf 25 25
-1 0
18 -7 0
-17 0
-3 0
17 -5 -9 -4 0
-22 0
8 -3 6 0
-19 0
-15 23 0
-15 13 0
-12 -13 0
-14 5 -22 0
-8 2 -20 23 0
8 0
-19 24 -17 14 0
-20 0
-23 -3 0
-25 9 -17 20 0
-14 11 -19 21 0
13 -19 3 0
-12 -16 23 0
2 8 -21 9 0
-10 -13 0
-8 -23 5 -20 0
-5 -3 8 0
